Reading model...
...model read.
creating competitive generators file...
...competitive generators recorded.
Loading data...
.. real-time data read.
Compiling instance...
...instance created.
Creating Offer Mitigation (model will solve as dispatch if TRUE)...
...storage offer mitigation file created
Converting model to MPEC...
...converted
NOTE: initial MIP solve with only storage competitive to get feasible solution
Solving...

Welcome to IBM(R) ILOG(R) CPLEX(R) Interactive Optimizer 12.10.0.0
  with Simplex, Mixed Integer & Barrier Optimizers
5725-A06 5725-A29 5724-Y48 5724-Y49 5724-Y54 5724-Y55 5655-Y21
Copyright IBM Corp. 1988, 2019.  All Rights Reserved.

Type 'help' for a list of available commands.
Type 'help' followed by a command name for more
information on commands.

CPLEX> Logfile 'cplex.log' closed.
Logfile 'C:\Users\wenmi\Desktop\competitiveMPEC\logs\tmpz0n65n21.cplex.log' open.
CPLEX> New value for parallel optimization mode: -1
CPLEX> New value for mixed integer optimality gap tolerance: 0.05
CPLEX> New value for deterministic time limit in ticks: 100000
CPLEX> Problem 'C:\Users\wenmi\Desktop\competitiveMPEC\logs\tmpt3hl3pcl.pyomo.lp' read.
Read time = 0.30 sec. (27.41 ticks)
CPLEX> Problem name         : C:\Users\wenmi\Desktop\competitiveMPEC\logs\tmpt3hl3pcl.pyomo.lp
Objective sense      : Maximize
Variables            :  107779  [Nneg: 1,  Box: 44054,  Free: 8928,
                                 Binary: 54796]
Objective nonzeros   :   17670
Linear constraints   :  246995  [Less: 82866,  Greater: 118424,  Equal: 45705]
  Nonzeros           :  581121
  RHS nonzeros       :  134788

Variables            : Min LB: -5000.000        Max UB: 1000000.       
Objective nonzeros   : Min   : 0.008333333      Max   : 180.0000       
Linear constraints   :
  Nonzeros           : Min   : 0.008333333      Max   : 1000000.       
  RHS nonzeros       : Min   : 0.008333333      Max   : 1000000.       
CPLEX> Version identifier: 12.10.0.0 | 2019-11-26 | 843d4de2ae
CPXPARAM_Parallel                                -1
CPXPARAM_DetTimeLimit                            100000
CPXPARAM_MIP_Tolerances_MIPGap                   0.050000000000000003
Tried aggregator 3 times.
MIP Presolve eliminated 180946 rows and 40768 columns.
MIP Presolve added 6292 rows and 0 columns.
MIP Presolve modified 49136 coefficients.
Aggregator did 25884 substitutions.
Reduced MIP has 46457 rows, 39645 columns, and 128598 nonzeros.
Reduced MIP has 15595 binaries, 0 generals, 0 SOSs, and 0 indicators.
Presolve time = 0.33 sec. (336.88 ticks)
Probing fixed 805 vars, tightened 9694 bounds.
Probing time = 0.08 sec. (15.93 ticks)
Tried aggregator 2 times.
Detecting symmetries...
MIP Presolve eliminated 1801 rows and 1611 columns.
MIP Presolve modified 5644 coefficients.
Aggregator did 48 substitutions.
Reduced MIP has 44608 rows, 37986 columns, and 123236 nonzeros.
Reduced MIP has 14790 binaries, 0 generals, 0 SOSs, and 0 indicators.
Presolve time = 0.14 sec. (215.72 ticks)
Probing fixed 0 vars, tightened 594 bounds.
Probing time = 0.17 sec. (21.71 ticks)
Clique table members: 87304.
MIP emphasis: balance optimality and feasibility.
MIP search method: dynamic search.
Parallel mode: opportunistic, using up to 16 threads.
Root relaxation solution time = 0.63 sec. (1766.20 ticks)

        Nodes                                         Cuts/
   Node  Left     Objective  IInf  Best Integer    Best Bound    ItCnt     Gap

      0     0     3573.0485   183                   3573.0485    10288         
      0     0     3573.0332   183                    Cuts: 73    10324         
      0     0     3572.8498   183                    Cuts: 45    10365         
      0     0     3571.4350   183                    Cuts: 56    10408         
      0     0     3570.0074   183                    Cuts: 40    10429         
*     0+    0                         3122.5218     3570.0074            14.33%
      0     0     3569.3707   183     3122.5218  Flowcuts: 10    10441   14.31%
      0     0     3569.0357   183     3122.5218      Cuts: 16    10448   14.30%
      0     0     3569.0357   183     3122.5218      Cuts: 47    10460   14.30%
      0     0     3569.0357   183     3122.5218    MIRcuts: 1    10461   14.30%
      0     2     3569.0357    51     3122.5218     3569.0357    10461   14.30%
Elapsed time = 6.55 sec. (6314.44 ticks, tree = 0.02 MB, solutions = 2)
     12     3     3563.0907    47     3122.5218     3568.7164    10473   14.29%
*    18+    2                         3510.4025     3568.7164             1.66%
     27    16     3566.1480    37     3510.4025     3568.7164    10476    1.66%

Implied bound cuts applied:  3
Flow cuts applied:  101
Mixed integer rounding cuts applied:  1
Gomory fractional cuts applied:  17

Root node processing (before b&c):
  Real time             =    4.87 sec. (6187.55 ticks)
Parallel b&c, 16 threads:
  Real time             =    2.05 sec. (636.16 ticks)
  Sync time (average)   =    0.44 sec.
  Wait time (average)   =    0.00 sec.
                          ------------
Total (root+branch&cut) =    6.92 sec. (6823.71 ticks)

Solution pool: 2 solutions saved.

MIP - Integer optimal, tolerance (0.05/1e-06):  Objective =  3.5104024682e+03
Current MIP best bound =  3.5687164217e+03 (gap = 58.314, 1.66%)
Solution time =    6.94 sec.  Iterations = 10590  Nodes = 28 (29)
Deterministic time = 6824.02 ticks  (983.57 ticks/sec)

CPLEX> Incumbent solution written to file 'C:\Users\wenmi\Desktop\competitiveMPEC\logs\tmpp5us92jr.cplex.sol'.
CPLEX> NOTE: no warmstart specified for MIP iteration, default behavior is true
NOTE: resolving with all competitive generators using storage-only solution to warmstart
Solving...

Welcome to IBM(R) ILOG(R) CPLEX(R) Interactive Optimizer 12.10.0.0
  with Simplex, Mixed Integer & Barrier Optimizers
5725-A06 5725-A29 5724-Y48 5724-Y49 5724-Y54 5724-Y55 5655-Y21
Copyright IBM Corp. 1988, 2019.  All Rights Reserved.

Type 'help' for a list of available commands.
Type 'help' followed by a command name for more
information on commands.

CPLEX> Logfile 'cplex.log' closed.
Logfile 'C:\Users\wenmi\Desktop\competitiveMPEC\logs\tmpu1srrgjx.cplex.log' open.
CPLEX> New value for parallel optimization mode: -1
CPLEX> New value for mixed integer optimality gap tolerance: 0.05
CPLEX> New value for deterministic time limit in ticks: 100000
CPLEX> Problem 'C:\Users\wenmi\Desktop\competitiveMPEC\logs\tmpom6o24wv.pyomo.lp' read.
Read time = 0.31 sec. (27.45 ticks)
CPLEX> MIP start file 'C:\Users\wenmi\Desktop\competitiveMPEC\logs\tmpfsc92gmu.cplex.mst' read.
CPLEX> Problem name         : C:\Users\wenmi\Desktop\competitiveMPEC\logs\tmpom6o24wv.pyomo.lp
Objective sense      : Maximize
Variables            :  109219  [Nneg: 1,  Box: 45494,  Free: 8928,
                                 Binary: 54796]
Objective nonzeros   :   19062
Linear constraints   :  246995  [Less: 82866,  Greater: 118424,  Equal: 45705]
  Nonzeros           :  581121
  RHS nonzeros       :  134788

Variables            : Min LB: -5000.000        Max UB: 1000000.       
Objective nonzeros   : Min   : 0.008333333      Max   : 180.0000       
Linear constraints   :
  Nonzeros           : Min   : 0.008333333      Max   : 1000000.       
  RHS nonzeros       : Min   : 0.008333333      Max   : 1000000.       
CPLEX> Version identifier: 12.10.0.0 | 2019-11-26 | 843d4de2ae
CPXPARAM_Parallel                                -1
CPXPARAM_DetTimeLimit                            100000
CPXPARAM_MIP_Tolerances_MIPGap                   0.050000000000000003
1 of 1 MIP starts provided solutions.
MIP start 'm1' defined initial solution with objective 6341.6385.
Tried aggregator 3 times.
MIP Presolve eliminated 180946 rows and 42208 columns.
MIP Presolve added 6292 rows and 0 columns.
MIP Presolve modified 49136 coefficients.
Aggregator did 25884 substitutions.
Reduced MIP has 46457 rows, 39645 columns, and 128598 nonzeros.
Reduced MIP has 15595 binaries, 0 generals, 0 SOSs, and 0 indicators.
Presolve time = 0.33 sec. (337.62 ticks)
Probing fixed 805 vars, tightened 9694 bounds.
Probing time = 0.08 sec. (15.93 ticks)
Tried aggregator 2 times.
Detecting symmetries...
MIP Presolve eliminated 1801 rows and 1611 columns.
MIP Presolve modified 5644 coefficients.
Aggregator did 48 substitutions.
Reduced MIP has 44608 rows, 37986 columns, and 123236 nonzeros.
Reduced MIP has 14790 binaries, 0 generals, 0 SOSs, and 0 indicators.
Presolve time = 0.14 sec. (215.72 ticks)
Probing fixed 0 vars, tightened 568 bounds.
Probing time = 0.16 sec. (20.01 ticks)
Clique table members: 87427.
MIP emphasis: balance optimality and feasibility.
MIP search method: dynamic search.
Parallel mode: opportunistic, using up to 16 threads.
Root relaxation solution time = 0.61 sec. (1743.30 ticks)

        Nodes                                         Cuts/
   Node  Left     Objective  IInf  Best Integer    Best Bound    ItCnt     Gap

*     0+    0                         6341.6385   1.02042e+07              --- 
      0     0     6473.6605   249     6341.6385     6473.6605    10148    2.08%

Root node processing (before b&c):
  Real time             =    1.97 sec. (2977.83 ticks)
Parallel b&c, 16 threads:
  Real time             =    0.00 sec. (0.00 ticks)
  Sync time (average)   =    0.00 sec.
  Wait time (average)   =    0.00 sec.
                          ------------
Total (root+branch&cut) =    1.97 sec. (2977.83 ticks)

Solution pool: 1 solution saved.

MIP - Integer optimal, tolerance (0.05/1e-06):  Objective =  6.3416384800e+03
Current MIP best bound =  6.4736605036e+03 (gap = 132.022, 2.08%)
Solution time =    1.97 sec.  Iterations = 10148  Nodes = 0 (1)
Deterministic time = 2978.15 ticks  (1512.52 ticks/sec)

CPLEX> Incumbent solution written to file 'C:\Users\wenmi\Desktop\competitiveMPEC\logs\tmpo2b293zo.cplex.sol'.
CPLEX> Exporting results... 
